50 80
15 21
7 26
25 41
5 10
38 44
5 37
44 47
10 45
3 24
12 45
25 27
8 41
1 35
0 46
20 33
21 32
6 43
5 23
1 19
19 34
28 46
3 19
4 18
4 27
21 43
1 3
36 43
7 16
11 41
25 40
40 49
13 16
33 37
25 33
8 47
24 46
23 26
8 22
19 31
18 32
15 45
40 44
18 41
19 24
34 43
17 36
2 17
47 49
6 8
0 47
15 29
38 40
12 30
17 20
22 43
3 48
2 28
2 37
7 27
18 36
4 19
21 35
1 13
14 41
2 21
0 24
9 36
3 4
10 46
36 37
19 30
9 13
31 43
17 26
12 39
4 44
1 29
42 46
29 48
17 28
50
